NAME          DCAP_3_4_2_200_SS8
ROWS
 N  OBJ
 L  CON1
 L  CON2
 L  CON3
 L  CON4
 L  CON5
 L  CON6
 L  CON7
 L  CON8
 L  CON9
 L  CON10
 L  CON11
 L  CON12
 E  CON13
 E  CON14
 E  CON15
 E  CON16
 E  CON17
 E  CON18
 E  CON19
 E  CON20
COLUMNS
    x[1,1]    OBJ       6.180167      CON1      1.000000    
    x[1,1]    CON7      -1.000000     CON8      -1.000000   
    x[1,2]    OBJ       5.039546      CON2      1.000000    
    x[1,2]    CON8      -1.000000   
    x[2,1]    OBJ       6.732585      CON3      1.000000    
    x[2,1]    CON9      -1.000000     CON10     -1.000000   
    x[2,2]    OBJ       7.443064      CON4      1.000000    
    x[2,2]    CON10     -1.000000   
    x[3,1]    OBJ       6.563535      CON5      1.000000    
    x[3,1]    CON11     -1.000000     CON12     -1.000000   
    x[3,2]    OBJ       6.054841      CON6      1.000000    
    x[3,2]    CON12     -1.000000   
    MARKER    'MARKER'                'INTORG'
    u[1,1]    OBJ       48.076654     CON1      -1.000000   
    u[1,2]    OBJ       49.466655     CON2      -1.000000   
    u[2,1]    OBJ       49.996186     CON3      -1.000000   
    u[2,2]    OBJ       32.230043     CON4      -1.000000   
    u[3,1]    OBJ       20.066487     CON5      -1.000000   
    u[3,2]    OBJ       27.484319     CON6      -1.000000   
    y[1,1,1]  OBJ       5.713710      CON7      1.211347    
    y[1,1,1]  CON13     1.000000    
    y[1,1,2]  OBJ       6.620397      CON8      1.417073    
    y[1,1,2]  CON14     1.000000    
    y[1,2,1]  OBJ       6.228152      CON7      0.989292    
    y[1,2,1]  CON15     1.000000    
    y[1,2,2]  OBJ       7.663641      CON8      1.292645    
    y[1,2,2]  CON16     1.000000    
    y[1,3,1]  OBJ       6.833222      CON7      1.075408    
    y[1,3,1]  CON17     1.000000    
    y[1,3,2]  OBJ       8.068946      CON8      1.278980    
    y[1,3,2]  CON18     1.000000    
    y[1,4,1]  OBJ       5.694589      CON7      0.916973    
    y[1,4,1]  CON19     1.000000    
    y[1,4,2]  OBJ       7.045160      CON8      1.040015    
    y[1,4,2]  CON20     1.000000    
    y[2,1,1]  OBJ       6.617079      CON9      1.211347    
    y[2,1,1]  CON13     1.000000    
    y[2,1,2]  OBJ       8.188156      CON10     1.417073    
    y[2,1,2]  CON14     1.000000    
    y[2,2,1]  OBJ       5.757607      CON9      0.989292    
    y[2,2,1]  CON15     1.000000    
    y[2,2,2]  OBJ       5.559023      CON10     1.292645    
    y[2,2,2]  CON16     1.000000    
    y[2,3,1]  OBJ       6.715108      CON9      1.075408    
    y[2,3,1]  CON17     1.000000    
    y[2,3,2]  OBJ       5.404532      CON10     1.278980    
    y[2,3,2]  CON18     1.000000    
    y[2,4,1]  OBJ       9.095237      CON9      0.916973    
    y[2,4,1]  CON19     1.000000    
    y[2,4,2]  OBJ       6.230222      CON10     1.040015    
    y[2,4,2]  CON20     1.000000    
    y[3,1,1]  OBJ       8.070911      CON11     1.211347    
    y[3,1,1]  CON13     1.000000    
    y[3,1,2]  OBJ       9.231931      CON12     1.417073    
    y[3,1,2]  CON14     1.000000    
    y[3,2,1]  OBJ       5.137592      CON11     0.989292    
    y[3,2,1]  CON15     1.000000    
    y[3,2,2]  OBJ       9.359151      CON12     1.292645    
    y[3,2,2]  CON16     1.000000    
    y[3,3,1]  OBJ       5.574722      CON11     1.075408    
    y[3,3,1]  CON17     1.000000    
    y[3,3,2]  OBJ       7.417127      CON12     1.278980    
    y[3,3,2]  CON18     1.000000    
    y[3,4,1]  OBJ       5.818952      CON11     0.916973    
    y[3,4,1]  CON19     1.000000    
    y[3,4,2]  OBJ       7.734755      CON12     1.040015    
    y[3,4,2]  CON20     1.000000    
    z[1,1]    OBJ       968.702611    CON13     1.000000    
    z[1,2]    OBJ       933.950716    CON14     1.000000    
    z[2,1]    OBJ       606.292726    CON15     1.000000    
    z[2,2]    OBJ       793.030710    CON16     1.000000    
    z[3,1]    OBJ       948.196177    CON17     1.000000    
    z[3,2]    OBJ       838.123765    CON18     1.000000    
    z[4,1]    OBJ       525.383702    CON19     1.000000    
    z[4,2]    OBJ       650.086854    CON20     1.000000    
    MARKER    'MARKER'                 'INTEND'
RHS
    RHS       CON1      -0.000000     CON2      -0.000000   
    RHS       CON3      -0.000000     CON4      -0.000000   
    RHS       CON5      -0.000000     CON6      -0.000000   
    RHS       CON7      -0.000000     CON8      -0.000000   
    RHS       CON9      -0.000000     CON10     -0.000000   
    RHS       CON11     -0.000000     CON12     -0.000000   
    RHS       CON13     1.000000      CON14     1.000000    
    RHS       CON15     1.000000      CON16     1.000000    
    RHS       CON17     1.000000      CON18     1.000000    
    RHS       CON19     1.000000      CON20     1.000000    
BOUNDS
 BV BOUND     u[1,1]  
 BV BOUND     u[1,2]  
 BV BOUND     u[2,1]  
 BV BOUND     u[2,2]  
 BV BOUND     u[3,1]  
 BV BOUND     u[3,2]  
 BV BOUND     y[1,1,1]
 BV BOUND     y[1,1,2]
 BV BOUND     y[1,2,1]
 BV BOUND     y[1,2,2]
 BV BOUND     y[1,3,1]
 BV BOUND     y[1,3,2]
 BV BOUND     y[1,4,1]
 BV BOUND     y[1,4,2]
 BV BOUND     y[2,1,1]
 BV BOUND     y[2,1,2]
 BV BOUND     y[2,2,1]
 BV BOUND     y[2,2,2]
 BV BOUND     y[2,3,1]
 BV BOUND     y[2,3,2]
 BV BOUND     y[2,4,1]
 BV BOUND     y[2,4,2]
 BV BOUND     y[3,1,1]
 BV BOUND     y[3,1,2]
 BV BOUND     y[3,2,1]
 BV BOUND     y[3,2,2]
 BV BOUND     y[3,3,1]
 BV BOUND     y[3,3,2]
 BV BOUND     y[3,4,1]
 BV BOUND     y[3,4,2]
 BV BOUND     z[1,1]  
 BV BOUND     z[1,2]  
 BV BOUND     z[2,1]  
 BV BOUND     z[2,2]  
 BV BOUND     z[3,1]  
 BV BOUND     z[3,2]  
 BV BOUND     z[4,1]  
 BV BOUND     z[4,2]  
ENDATA
